************************************************************************
file with basedata            : j30_27.bas
initial value random generator: 2062514517
************************************************************************
projects                      :  1
jobs (incl. supersource/sink ):  32
horizon                       :  183
RESOURCES
  - renewable                 :  4   R
  - nonrenewable              :  0   N
  - doubly constrained        :  0   D
************************************************************************
PROJECT INFORMATION:
pronr.  #jobs rel.date duedate tardcost  MPM-Time
    1     30      0       62        4       62
************************************************************************
PRECEDENCE RELATIONS:
jobnr.    #modes  #successors   successors
   1        1          3           2   3   4
   2        1          3           5   6  20
   3        1          1          18
   4        1          3          17  26  27
   5        1          3           7   9  12
   6        1          2          19  30
   7        1          1           8
   8        1          2          14  31
   9        1          2          10  11
  10        1          1          15
  11        1          1          29
  12        1          3          13  16  22
  13        1          1          23
  14        1          3          21  22  23
  15        1          1          17
  16        1          2          24  25
  17        1          1          28
  18        1          1          27
  19        1          1          31
  20        1          1          28
  21        1          1          25
  22        1          1          29
  23        1          1          29
  24        1          1          26
  25        1          1          27
  26        1          1          28
  27        1          1          30
  28        1          2          30  31
  29        1          1          32
  30        1          1          32
  31        1          1          32
  32        1          0        
************************************************************************
REQUESTS/DURATIONS:
jobnr. mode duration  R 1  R 2  R 3  R 4
------------------------------------------------------------------------
  1      1     0       0    0    0    0
  2      1     7       0   10    0    5
  3      1     9      10    5    5    5
  4      1     8       5    5    0    1
  5      1     9       0   10    4    4
  6      1     5       1    0    8    7
  7      1     9       8    4   10    0
  8      1     3       6    0    2    2
  9      1     2      10    5    6    7
 10      1     6      10    6    3    0
 11      1     2       0    3    2    0
 12      1     7       0    7    8    2
 13      1     3       1    0    0    3
 14      1     7       9    4    7    5
 15      1     6       5    0    0    5
 16      1     4       0    8    6    3
 17      1     1       6    8    0    5
 18      1    10      10    0    1    1
 19      1    10       1    7    0    9
 20      1     2       6    1    0    7
 21      1     8      10   10    7    0
 22      1    10       1   10    4    9
 23      1     6       0    1    8    5
 24      1     6       4    4    9    5
 25      1    10       0    0    0   10
 26      1     1       1    9    4    0
 27      1     3       0    8    0   10
 28      1     8       9    6    8    3
 29      1     6       7    1    1    1
 30      1     6       0    1    1    5
 31      1     9       4    6   10    9
 32      1     0       0    0    0    0
************************************************************************
RESOURCEAVAILABILITIES:
  R 1  R 2  R 3  R 4
   23   22   22   23
************************************************************************
Job	#risk	Type	VL	mu	sigma	Type	VL	mu	sigma
9	1	4	0.2	5	1
12	1	5	0.1	6.25	0.625
14	1	4	0.1	5	0.5
18	2	1	0.2	1.25	0.25	7	0.2	8.75	1.75
19	1	1	0.1	1.25	0.125
23	2	2	0.1	2.5	0.25	5	0.05	6.25	0.3125
26	1	6	0.1	7.5	0.75
27	2	2	0.05	2.5	0.125	3	0.2	3.75	0.75
28	2	4	0.2	5	1	8	0.2	10	2
